Cars = 1..200;
Options = 1..5;
Classes = 1..27;
sequenceMinCapacity = [0, 0, 0, 0, 0];
sequenceMaxCapacity = [1, 2, 1, 2, 1];
sequenceSize = [2, 3, 3, 5, 5];
numOrdered = [1, 2, 2, 24, 1, 2, 1, 2, 12, 1, 9, 20, 2, 44, 3, 6, 7, 4, 8, 17, 4, 1, 4, 2, 2, 1, 18];
classHasOption = [| true,  true,  true,  true, false
                  | true, false, false, false,  true
                  | true, false,  true, false,  true
                  |false, false, false,  true, false
                  | true,  true,  true, false,  true
                  |false,  true, false,  true,  true
                  | true, false,  true,  true,  true
                  | true,  true, false,  true, false
                  |false,  true, false,  true, false
                  |false, false,  true, false,  true
                  | true, false, false,  true, false
                  |false, false,  true, false, false
                  | true,  true,  true, false, false
                  |false,  true, false, false, false
                  |false, false,  true,  true, false
                  | true, false,  true, false, false
                  |false,  true,  true, false, false
                  | true,  true, false, false,  true
                  |false, false, false, false,  true
                  | true, false, false, false, false
                  | true, false, false,  true,  true
                  |false,  true, false, false,  true
                  |false,  true,  true,  true, false
                  |false, false, false,  true,  true
                  |false,  true,  true, false, false
                  | true, false,  true, false, false
                  | true,  true, false, false, false|];
optionOrdering = [3, 1, 5, 4, 2];
